p cnf 120 204
-7 -79 -67 0 
-7 -80 -67 0 
-7 -81 -67 0 
-7 -82 -67 0 
-7 -83 -67 0 
-7 -84 -67 0 
-14 -85 -68 0 
-14 -86 -68 0 
-14 -87 -68 0 
-14 -88 -68 0 
-14 -89 -68 0 
-14 -90 -68 0 
-21 -91 -69 0 
-21 -92 -69 0 
-21 -93 -69 0 
-21 -94 -69 0 
-21 -95 -69 0 
-21 -96 -69 0 
-28 -97 -70 0 
-28 -98 -70 0 
-28 -99 -70 0 
-28 -100 -70 0 
-28 -101 -70 0 
-28 -102 -70 0 
-35 -103 -71 0 
-35 -104 -71 0 
-35 -105 -71 0 
-35 -106 -71 0 
-35 -107 -71 0 
-35 -108 -71 0 
-42 -109 -72 0 
-42 -110 -72 0 
-42 -111 -72 0 
-42 -112 -72 0 
-42 -113 -72 0 
-42 -114 -72 0 
-49 -115 -73 0 
-51 -116 -74 0 
-53 -117 -75 0 
-55 -118 -76 0 
-57 -119 -77 0 
-59 -120 -78 0 
-1 61 0 
1 -61 0 
-2 62 0 
2 -62 0 
-3 63 0 
3 -63 0 
-4 64 0 
4 -64 0 
-5 65 0 
5 -65 0 
-6 66 0 
6 -66 0 
-7 -79 8 0 
-8 7 0 
-8 79 0 
-7 -80 9 0 
-9 7 0 
-9 80 0 
-7 -81 10 0 
-10 7 0 
-10 81 0 
-7 -82 11 0 
-11 7 0 
-11 82 0 
-7 -83 12 0 
-12 7 0 
-12 83 0 
-7 -84 13 0 
-13 7 0 
-13 84 0 
8 9 10 11 12 13 -7 67 0 
7 -67 0 
-14 -85 15 0 
-15 14 0 
-15 85 0 
-14 -86 16 0 
-16 14 0 
-16 86 0 
-14 -87 17 0 
-17 14 0 
-17 87 0 
-14 -88 18 0 
-18 14 0 
-18 88 0 
-14 -89 19 0 
-19 14 0 
-19 89 0 
-14 -90 20 0 
-20 14 0 
-20 90 0 
15 16 17 18 19 20 -14 68 0 
14 -68 0 
-21 -91 22 0 
-22 21 0 
-22 91 0 
-21 -92 23 0 
-23 21 0 
-23 92 0 
-21 -93 24 0 
-24 21 0 
-24 93 0 
-21 -94 25 0 
-25 21 0 
-25 94 0 
-21 -95 26 0 
-26 21 0 
-26 95 0 
-21 -96 27 0 
-27 21 0 
-27 96 0 
22 23 24 25 26 27 -21 69 0 
21 -69 0 
-28 -97 29 0 
-29 28 0 
-29 97 0 
-28 -98 30 0 
-30 28 0 
-30 98 0 
-28 -99 31 0 
-31 28 0 
-31 99 0 
-28 -100 32 0 
-32 28 0 
-32 100 0 
-28 -101 33 0 
-33 28 0 
-33 101 0 
-28 -102 34 0 
-34 28 0 
-34 102 0 
29 30 31 32 33 34 -28 70 0 
28 -70 0 
-35 -103 36 0 
-36 35 0 
-36 103 0 
-35 -104 37 0 
-37 35 0 
-37 104 0 
-35 -105 38 0 
-38 35 0 
-38 105 0 
-35 -106 39 0 
-39 35 0 
-39 106 0 
-35 -107 40 0 
-40 35 0 
-40 107 0 
-35 -108 41 0 
-41 35 0 
-41 108 0 
36 37 38 39 40 41 -35 71 0 
35 -71 0 
-42 -109 43 0 
-43 42 0 
-43 109 0 
-42 -110 44 0 
-44 42 0 
-44 110 0 
-42 -111 45 0 
-45 42 0 
-45 111 0 
-42 -112 46 0 
-46 42 0 
-46 112 0 
-42 -113 47 0 
-47 42 0 
-47 113 0 
-42 -114 48 0 
-48 42 0 
-48 114 0 
43 44 45 46 47 48 -42 72 0 
42 -72 0 
-49 -115 50 0 
-50 49 0 
-50 115 0 
50 -49 73 0 
49 -73 0 
-51 -116 52 0 
-52 51 0 
-52 116 0 
52 -51 74 0 
51 -74 0 
-53 -117 54 0 
-54 53 0 
-54 117 0 
54 -53 75 0 
53 -75 0 
-55 -118 56 0 
-56 55 0 
-56 118 0 
56 -55 76 0 
55 -76 0 
-57 -119 58 0 
-58 57 0 
-58 119 0 
58 -57 77 0 
57 -77 0 
-59 -120 60 0 
-60 59 0 
-60 120 0 
60 -59 78 0 
59 -78 0 
